data;
param n:=50;
param w:=1 -135 2 195 3 -80 4 -242 5 26 6 137 7 -100 8 -84 9 -97 10 -70 11 144 12 109 13 -61 14 -163 15 -73 16 164 17 15 18 -241 19 38 20 12 21 -5 22 57 23 57 24 67 25 -75 26 222 27 -212 28 173 29 120 30 182 31 117 32 -83 33 149 34 120 35 -23 36 -240 37 -232 38 49 39 165 40 -196 41 -70 42 -237 43 209 44 24 45 158 46 19 47 198 48 -47 49 -92 50 -68;
